15 40
25
3 11 10 16
3 13 4 27
2 9 13 0
2 7 0 10
3 9 10 0
3 7 10 9
2 11 0 17
2 13 2 27
4 11 2 0
4 13 11 27
3 5 7 22
2 11 13 9
2 2 0 5
3 11 7 11
2 3 0 7
4 5 6 0
4 6 6 5
2 12 0 28
2 1 13 20
5 3 2 11
5 13 2 14
4 12 7 27
4 1 7 39
2 5 0 0
2 6 13 21
